GLPSOL--GLPK LP/MIP Solver 5.0
Parameter(s) specified in the command line:
 --lp ../modeles/5_394.lp --log 5_394.log
Reading problem data from '../modeles/5_394.lp'...
1991 rows, 3950 columns, 13805 non-zeros
1970 integer variables, all of which are binary
5952 lines were read
GLPK Integer Optimizer 5.0
1991 rows, 3950 columns, 13805 non-zeros
1970 integer variables, all of which are binary
Preprocessing...
1950 constraint coefficient(s) were reduced
1991 rows, 3945 columns, 13800 non-zeros
1970 integer variables, all of which are binary
Scaling...
 A: min|aij| =  1.031e-04  max|aij| =  4.000e+00  ratio =  3.881e+04
GM: min|aij| =  7.125e-02  max|aij| =  1.404e+01  ratio =  1.970e+02
EQ: min|aij| =  5.076e-03  max|aij| =  1.000e+00  ratio =  1.970e+02
2N: min|aij| =  3.906e-03  max|aij| =  1.772e+00  ratio =  4.536e+02
Constructing initial basis...
Size of triangular part is 1991
Solving LP relaxation...
GLPK Simplex Optimizer 5.0
1991 rows, 3945 columns, 13800 non-zeros
      0: obj =   1.000000000e+01 inf =   2.450e+01 (11)
    114: obj =   4.270483038e-01 inf =   0.000e+00 (0)
*   396: obj =  -2.236040609e+00 inf =   2.470e-15 (0)
OPTIMAL LP SOLUTION FOUND
Integer optimization begins...
Long-step dual simplex will be used
+   396: mip =     not found yet >=              -inf        (1; 0)
+   720: >>>>>  -2.236040609e+00 >=  -2.236040609e+00 < 0.1% (325; 0)
+   720: mip =  -2.236040609e+00 >=     tree is empty   0.0% (0; 649)
INTEGER OPTIMAL SOLUTION FOUND
Time used:   1.0 secs
Memory used: 5.8 Mb (6087075 bytes)
